NAME          
ROWS
 N  OBJ
 L  c1
 L  c2
 L  c3
 L  c4
 L  c5
COLUMNS
    MARKER    'MARKER'                 'INTORG'
    x[1]      c1        116
    x[1]      c2        708
    x[1]      c3        868
    x[1]      c4        567
    x[1]      c5        783
    x[1]      OBJ       -605
    x[2]      c1        335
    x[2]      c2        45
    x[2]      c3        732
    x[2]      c4        938
    x[2]      c5        906
    x[2]      OBJ       -538
    x[3]      c1        256
    x[3]      c2        776
    x[3]      c3        305
    x[3]      c4        788
    x[3]      c5        484
    x[3]      OBJ       -283
    x[4]      c1        6
    x[4]      c2        716
    x[4]      c3        856
    x[4]      c4        883
    x[4]      c5        795
    x[4]      OBJ       -111
    x[5]      c1        23
    x[5]      c2        467
    x[5]      c3        857
    x[5]      c4        984
    x[5]      c5        744
    x[5]      OBJ       -850
    x[6]      c1        626
    x[6]      c2        824
    x[6]      c3        500
    x[6]      c4        427
    x[6]      c5        760
    x[6]      OBJ       -482
    x[7]      c1        328
    x[7]      c2        443
    x[7]      c3        849
    x[7]      c4        431
    x[7]      c5        143
    x[7]      OBJ       -440
    x[8]      c1        242
    x[8]      c2        959
    x[8]      c3        369
    x[8]      c4        395
    x[8]      c5        780
    x[8]      OBJ       -448
    x[9]      c1        882
    x[9]      c2        424
    x[9]      c3        691
    x[9]      c4        783
    x[9]      c5        670
    x[9]      OBJ       -620
    x[10]     c1        420
    x[10]     c2        995
    x[10]     c3        335
    x[10]     c4        437
    x[10]     c5        969
    x[10]     OBJ       -300
    x[11]     c1        576
    x[11]     c2        996
    x[11]     c3        219
    x[11]     c4        352
    x[11]     c5        305
    x[11]     OBJ       -357
    x[12]     c1        542
    x[12]     c2        549
    x[12]     c3        161
    x[12]     c4        477
    x[12]     c5        629
    x[12]     OBJ       -629
    x[13]     c1        645
    x[13]     c2        847
    x[13]     c3        627
    x[13]     c4        221
    x[13]     c5        15
    x[13]     OBJ       -276
    x[14]     c1        649
    x[14]     c2        211
    x[14]     c3        719
    x[14]     c4        769
    x[14]     c5        434
    x[14]     OBJ       -177
    x[15]     c1        166
    x[15]     c2        147
    x[15]     c3        702
    x[15]     c4        943
    x[15]     c5        739
    x[15]     OBJ       -1000
    x[16]     c1        182
    x[16]     c2        279
    x[16]     c3        740
    x[16]     c4        461
    x[16]     c5        833
    x[16]     OBJ       -491
    x[17]     c1        271
    x[17]     c2        907
    x[17]     c3        896
    x[17]     c4        513
    x[17]     c5        564
    x[17]     OBJ       -63
    x[18]     c1        33
    x[18]     c2        196
    x[18]     c3        289
    x[18]     c4        487
    x[18]     c5        597
    x[18]     OBJ       -895
    x[19]     c1        194
    x[19]     c2        827
    x[19]     c3        668
    x[19]     c4        609
    x[19]     c5        881
    x[19]     OBJ       -458
    x[20]     c1        28
    x[20]     c2        876
    x[20]     c3        305
    x[20]     c4        283
    x[20]     c5        26
    x[20]     OBJ       -851
    x[21]     c1        296
    x[21]     c2        606
    x[21]     c3        338
    x[21]     c4        132
    x[21]     c5        371
    x[21]     OBJ       -796
    x[22]     c1        1
    x[22]     c2        445
    x[22]     c3        426
    x[22]     c4        580
    x[22]     c5        958
    x[22]     OBJ       -550
    x[23]     c1        662
    x[23]     c2        285
    x[23]     c3        319
    x[23]     c4        585
    x[23]     c5        926
    x[23]     OBJ       -369
    x[24]     c1        460
    x[24]     c2        391
    x[24]     c3        821
    x[24]     c4        142
    x[24]     c5        877
    x[24]     OBJ       -828
    x[25]     c1        899
    x[25]     c2        868
    x[25]     c3        64
    x[25]     c4        854
    x[25]     c5        151
    x[25]     OBJ       -13
    x[26]     c1        820
    x[26]     c2        109
    x[26]     c3        867
    x[26]     c4        623
    x[26]     c5        323
    x[26]     OBJ       -284
    x[27]     c1        598
    x[27]     c2        731
    x[27]     c3        333
    x[27]     c4        33
    x[27]     c5        199
    x[27]     OBJ       -163
    x[28]     c1        192
    x[28]     c2        180
    x[28]     c3        378
    x[28]     c4        941
    x[28]     c5        154
    x[28]     OBJ       -141
    x[29]     c1        719
    x[29]     c2        484
    x[29]     c3        866
    x[29]     c4        820
    x[29]     c5        689
    x[29]     OBJ       -14
    x[30]     c1        32
    x[30]     c2        714
    x[30]     c3        895
    x[30]     c4        998
    x[30]     c5        172
    x[30]     OBJ       -954
    x[31]     c1        897
    x[31]     c2        888
    x[31]     c3        100
    x[31]     c4        774
    x[31]     c5        822
    x[31]     OBJ       -968
    x[32]     c1        747
    x[32]     c2        857
    x[32]     c3        502
    x[32]     c4        929
    x[32]     c5        87
    x[32]     OBJ       -957
    x[33]     c1        498
    x[33]     c2        611
    x[33]     c3        69
    x[33]     c4        360
    x[33]     c5        605
    x[33]     OBJ       -111
    x[34]     c1        171
    x[34]     c2        55
    x[34]     c3        614
    x[34]     c4        629
    x[34]     c5        30
    x[34]     OBJ       -818
    x[35]     c1        338
    x[35]     c2        385
    x[35]     c3        455
    x[35]     c4        553
    x[35]     c5        550
    x[35]     OBJ       -262
RHS
    rhs       c1        6925
    rhs       c2        9900
    rhs       c3        9368
    rhs       c4        10350
    rhs       c5        9486
RANGES
BOUNDS
 BV bounds    x[1]
 BV bounds    x[2]
 BV bounds    x[3]
 BV bounds    x[4]
 BV bounds    x[5]
 BV bounds    x[6]
 BV bounds    x[7]
 BV bounds    x[8]
 BV bounds    x[9]
 BV bounds    x[10]
 BV bounds    x[11]
 BV bounds    x[12]
 BV bounds    x[13]
 BV bounds    x[14]
 BV bounds    x[15]
 BV bounds    x[16]
 BV bounds    x[17]
 BV bounds    x[18]
 BV bounds    x[19]
 BV bounds    x[20]
 BV bounds    x[21]
 BV bounds    x[22]
 BV bounds    x[23]
 BV bounds    x[24]
 BV bounds    x[25]
 BV bounds    x[26]
 BV bounds    x[27]
 BV bounds    x[28]
 BV bounds    x[29]
 BV bounds    x[30]
 BV bounds    x[31]
 BV bounds    x[32]
 BV bounds    x[33]
 BV bounds    x[34]
 BV bounds    x[35]
ENDATA
